(set-logic HORN)
(set-info :source |
  Benchmark: test_safe_2019/termination/indirectHO.1.ml
  Generated by MoCHi
|)
(set-info :status unknown)
(declare-fun |fail_397[24:0]| ( Int) Bool)
(declare-fun |f[8:4][11:0][17:1]| ( Bool  Int  Bool  Int  Bool  Int) Bool)
(declare-fun |f[8:3]| ( Bool  Int  Bool  Int) Bool)
(assert (not (exists ((x0 Int)) (|fail_397[24:0]| x0))))
(assert (forall ((x0 Int)(var12 Int)(var11 Bool)(var13 Bool)(var14 Int)(x1 Int)) (=> (and (|f[8:3]| var11 var12 var13 var14) (and (|f[8:4][11:0][17:1]| var11 var12 var13 var14 true x1) (<= var12 0))) (|fail_397[24:0]| x0))))
(assert (forall ((x3 Bool)(x4 Int)(x5 Bool)(x6 Int)(x1 Bool)(x2 Int)) (=> (and (|f[8:3]| x3 x4 x5 x6) (and (not x3) (and (not x1) (not x5)))) (|f[8:4][11:0][17:1]| x3 x4 x5 x6 x1 x2))))
(assert (forall ((x2 Bool)(x4 Int)(x1 Bool)(x0 Int)) (=> (and (not x2) (not x1)) (|f[8:3]| x2 x4 x1 x0))))
(check-sat)
(get-model)
(exit)
